experiments/21_JSA_experiments/solutions/imx8a/cpu/IN_6.json-ILP-IDLE-MAX.out.log
Using license file /home/benedond/gurobi.lic
Using gurobi.env file
Set parameter Threads to value 1
Academic license - for non-commercial use only
Changed value of parameter TimeLimit to 300.0
   Prev: inf  Min: 0.0  Max: inf  Default: inf
Gurobi Optimizer version 9.0.1 build v9.0.1rc0 (linux64)
Optimize a model with 880 rows, 820 columns and 3258 nonzeros
Model fingerprint: 0x2a4d221e
Variable types: 20 continuous, 800 integer (800 binary)
Coefficient statistics:
  Matrix range     [1e+00, 5e+02]
  Objective range  [5e+01, 5e+02]
  Bounds range     [1e+00, 1e+00]
  RHS range        [1e+00, 1e+03]
Presolve removed 529 rows and 510 columns
Presolve time: 0.18s
Presolved: 351 rows, 310 columns, 2401 nonzeros
Variable types: 20 continuous, 290 integer (290 binary)
Found heuristic solution: objective 3093.0000000

Root relaxation: objective 4.973000e+03, 184 iterations, 0.00 seconds

    Nodes    |    Current Node    |     Objective Bounds      |     Work
 Expl Unexpl |  Obj  Depth IntInf | Incumbent    BestBd   Gap | It/Node Time

     0     0 4973.00000    0   19 3093.00000 4973.00000  60.8%     -    0s
H    0     0                    3657.0000000 4973.00000  36.0%     -    0s
     0     0 4973.00000    0   46 3657.00000 4973.00000  36.0%     -    0s
H    0     0                    4410.0000000 4973.00000  12.8%     -    0s
     0     0 4973.00000    0   23 4410.00000 4973.00000  12.8%     -    0s
     0     0 4973.00000    0   40 4410.00000 4973.00000  12.8%     -    0s
     0     0 4973.00000    0   19 4410.00000 4973.00000  12.8%     -    0s
H    0     0                    4672.0000000 4973.00000  6.44%     -    0s
     0     0 4973.00000    0   21 4672.00000 4973.00000  6.44%     -    0s
     0     0 4973.00000    0   21 4672.00000 4973.00000  6.44%     -    0s
     0     0 4973.00000    0   21 4672.00000 4973.00000  6.44%     -    0s
     0     2 4973.00000    0   21 4672.00000 4973.00000  6.44%     -    0s
*   50    25              35    4759.0000000 4973.00000  4.50%  15.3    0s
H  162    64                    4838.0000000 4973.00000  2.79%  14.4    0s
H  514    66                    4894.0000000 4973.00000  1.61%   8.2    0s
H 3898   146                    4914.0000000 4973.00000  1.20%  15.9    3s
  4851   230 infeasible   46      4914.00000 4973.00000  1.20%  17.0    5s
 10458    86 4973.00000   25   24 4914.00000 4973.00000  1.20%  17.9   10s

Cutting planes:
  Gomory: 3
  Projected implied bound: 1

Explored 13659 nodes (268280 simplex iterations) in 14.30 seconds
Thread count was 1 (of 4 available processors)

Solution count 9: 4914 4894 4838 ... 3093

Optimal solution found (tolerance 1.00e-04)
Best objective 4.914000000000e+03, best bound 4.914000000000e+03, gap 0.0000%
